(set-option :produce-models true); benchmark generated from python API
(set-info :status unknown)
(declare-fun l_1_0_9 () Real)
(declare-fun l_1_0_8 () Real)
(declare-fun l_1_0_7 () Real)
(declare-fun l_1_0_6 () Real)
(declare-fun l_1_0_5 () Real)
(declare-fun l_1_0_4 () Real)
(declare-fun l_1_0_3 () Real)
(declare-fun l_1_0_2 () Real)
(declare-fun l_1_0_15 () Real)
(declare-fun l_1_0_14 () Real)
(declare-fun l_1_0_13 () Real)
(declare-fun l_1_0_12 () Real)
(declare-fun l_1_0_11 () Real)
(declare-fun l_1_0_10 () Real)
(declare-fun l_1_0_1 () Real)
(declare-fun _a_0_ () Real)
(declare-fun l_1_0_20 () Real)
(declare-fun l_1_0_19 () Real)
(declare-fun l_1_0_18 () Real)
(declare-fun _a_1_ () Real)
(declare-fun l_1_0_17 () Real)
(declare-fun l_1_0_16 () Real)
(declare-fun _a_2_ () Real)
(declare-fun l_1_1_9 () Real)
(declare-fun l_1_1_7 () Real)
(declare-fun l_1_1_4 () Real)
(declare-fun l_1_1_2 () Real)
(declare-fun l_1_1_15 () Real)
(declare-fun l_1_1_14 () Real)
(declare-fun l_1_1_13 () Real)
(declare-fun l_1_1_12 () Real)
(declare-fun l_1_1_11 () Real)
(declare-fun l_1_1_10 () Real)
(declare-fun l_1_1_8 () Real)
(declare-fun l_1_1_6 () Real)
(declare-fun l_1_1_5 () Real)
(declare-fun l_1_1_3 () Real)
(declare-fun l_1_1_1 () Real)
(declare-fun l_1_1_20 () Real)
(declare-fun l_1_1_19 () Real)
(declare-fun l_1_1_18 () Real)
(declare-fun l_1_1_17 () Real)
(declare-fun l_1_1_16 () Real)
(declare-fun l_1_2_9 () Real)
(declare-fun l_1_2_8 () Real)
(declare-fun l_1_2_5 () Real)
(declare-fun l_1_2_3 () Real)
(declare-fun l_1_2_2 () Real)
(declare-fun l_1_2_15 () Real)
(declare-fun l_1_2_14 () Real)
(declare-fun l_1_2_13 () Real)
(declare-fun l_1_2_12 () Real)
(declare-fun l_1_2_1 () Real)
(declare-fun l_1_2_7 () Real)
(declare-fun l_1_2_6 () Real)
(declare-fun l_1_2_4 () Real)
(declare-fun l_1_2_11 () Real)
(declare-fun l_1_2_10 () Real)
(declare-fun l_1_2_20 () Real)
(declare-fun l_1_2_19 () Real)
(declare-fun l_1_2_18 () Real)
(declare-fun l_1_2_17 () Real)
(declare-fun l_1_2_16 () Real)
(assert
 (let ((?x1084 (* (/ 7.0 20.0) l_1_0_9)))
 (let ((?x1082 (* (/ 7.0 20.0) l_1_0_7)))
 (let ((?x47 (* (/ 49.0 400.0) l_1_0_6)))
 (let ((?x45 (* (/ 7.0 20.0) l_1_0_5)))
 (let ((?x1240 (* (/ 49.0 400.0) l_1_0_4)))
 (let ((?x46 (* (/ 7.0 20.0) l_1_0_2)))
 (let ((?x49 (* l_1_0_15 l_1_0_15)))
 (let ((?x52 (* (/ 7.0 20.0) l_1_0_12)))
 (let ((?x55 (* (/ 7.0 20.0) l_1_0_11)))
 (let ((?x1244 (+ (+ (- (- _a_0_ (* (/ 49.0 400.0) l_1_0_1)) (* (/ 49.0 400.0) l_1_0_10)) ?x55) ?x52)))
 (let ((?x830 (- (- (+ (- (- (- ?x1244 l_1_0_13) l_1_0_14) ?x49) ?x46) l_1_0_3) ?x1240)))
 (= (+ (- (+ (- (+ ?x830 ?x45) ?x47) ?x1082) l_1_0_8) ?x1084) 0.0)))))))))))))
(assert
 (let ((?x1092 (* (/ 7.0 20.0) l_1_0_4)))
 (let ((?x57 (* l_1_0_20 l_1_0_20)))
 (let ((?x1085 (* l_1_0_19 l_1_0_19)))
 (let ((?x1152 (* l_1_0_18 l_1_0_18)))
 (let ((?x1087 (- (- (- (- _a_1_ (* (/ 107.0 50.0) l_1_0_1)) (* (/ 7.0 20.0) l_1_0_10)) ?x1152) ?x1085)))
 (= (+ (+ (- (- (+ ?x1087 l_1_0_2) ?x57) ?x1092) l_1_0_5) l_1_0_9) 0.0)))))))
(assert
 (let ((?x966 (* (/ 107.0 50.0) l_1_0_6)))
 (let ((?x1092 (* (/ 7.0 20.0) l_1_0_4)))
 (let ((?x996 (* l_1_0_17 l_1_0_17)))
 (let ((?x992 (* l_1_0_16 l_1_0_16)))
 (let ((?x993 (- (+ (+ (- _a_2_ (* (/ 7.0 20.0) l_1_0_10)) l_1_0_11) l_1_0_12) ?x992)))
 (= (+ (- (- (- ?x993 ?x996) ?x1092) ?x966) l_1_0_7) 0.0)))))))
(assert
 (= (* (/ 12.0 5.0) l_1_0_1) 0.0))
(assert
 (let ((?x873 (* (/ 6.0 5.0) l_1_0_9)))
 (let ((?x871 (* (/ 6.0 5.0) l_1_0_5)))
 (let ((?x907 (* (/ 21.0 50.0) l_1_0_4)))
 (let ((?x903 (* (/ 6.0 5.0) l_1_0_2)))
 (let ((?x935 (* (/ 21.0 50.0) l_1_0_10)))
 (let ((?x932 (* (/ 21.0 25.0) l_1_0_1)))
 (let ((?x896 (+ ?x932 ?x935)))
 (let ((?x872 (- (+ (- (- ?x896 (* (* 2.0 l_1_0_15) l_1_0_18)) ?x903) ?x907) ?x871)))
 (= (- ?x872 ?x873) 0.0))))))))))
(assert
 (= (- l_1_0_1) 0.0))
(assert
 (let ((?x658 (* (/ 36.0 25.0) l_1_0_4)))
 (let ((?x625 (- (- (* (- (/ 36.0 25.0)) l_1_0_10) (* (* 2.0 l_1_0_16) l_1_0_18)) (* (* 2.0 l_1_0_17) l_1_0_19))))
 (= (- ?x625 ?x658) 0.0))))
(assert
 (= (+ (* (/ 6.0 5.0) l_1_0_10) (* (/ 6.0 5.0) l_1_0_4)) 0.0))
(assert
 (= (+ (* (/ 6.0 5.0) l_1_0_10) (* (/ 6.0 5.0) l_1_0_4)) 0.0))
(assert
 (= (- (- l_1_0_10) l_1_0_4) 0.0))
(assert
 (let ((?x727 (* (/ 6.0 5.0) l_1_0_7)))
 (let ((?x725 (* (/ 21.0 25.0) l_1_0_6)))
 (let ((?x907 (* (/ 21.0 50.0) l_1_0_4)))
 (let ((?x767 (* (/ 6.0 5.0) l_1_0_12)))
 (let ((?x770 (- (- (- (* (/ 21.0 50.0) l_1_0_10) (* (/ 6.0 5.0) l_1_0_11)) ?x767) (* (* 2.0 l_1_0_15) l_1_0_16))))
 (= (- (+ (+ ?x770 ?x907) ?x725) ?x727) 0.0)))))))
(assert
 (= (* (/ 12.0 5.0) l_1_0_6) 0.0))
(assert
 (= (- l_1_0_6) 0.0))
(assert
 (>= l_1_0_1 0.0))
(assert
 (>= l_1_0_2 0.0))
(assert
 (>= l_1_0_3 0.0))
(assert
 (>= l_1_0_4 0.0))
(assert
 (>= l_1_0_5 0.0))
(assert
 (>= l_1_0_6 0.0))
(assert
 (>= l_1_0_7 0.0))
(assert
 (>= l_1_0_8 0.0))
(assert
 (>= l_1_0_9 0.0))
(assert
 (>= l_1_0_10 0.0))
(assert
 (>= l_1_0_11 0.0))
(assert
 (>= l_1_0_12 0.0))
(assert
 (>= l_1_0_13 0.0))
(assert
 (>= l_1_0_14 0.0))
(assert
 (>= l_1_0_15 0.0))
(assert
 (>= l_1_0_17 0.0))
(assert
 (>= l_1_0_20 0.0))
(assert
 (let ((?x523 (* l_1_1_15 l_1_1_15)))
 (let ((?x509 (* _a_0_ l_1_1_8)))
 (let ((?x579 (+ (- (* (- _a_0_) l_1_1_1) (* _a_0_ l_1_1_3)) (* (* 1.0 _a_0_) l_1_1_5))))
 (let ((?x514 (- (- (+ ?x579 (* (* 1.0 _a_0_) l_1_1_6)) ?x509) (* (* l_1_1_10 _a_0_) _a_0_))))
 (let ((?x521 (- (+ (+ ?x514 (* 1.0 l_1_1_11)) (* 1.0 l_1_1_12)) l_1_1_13)))
 (let ((?x528 (- (- (- (- (- ?x521 l_1_1_14) ?x523) l_1_1_2) l_1_1_4) (* 1.0 l_1_1_7))))
 (= (+ (+ ?x528 (* 1.0 l_1_1_9)) (/ 9.0 25.0)) 0.0))))))))
(assert
 (let ((?x406 (* 2.0 l_1_1_7)))
 (let ((?x417 (* l_1_1_20 l_1_1_20)))
 (let ((?x415 (* l_1_1_19 l_1_1_19)))
 (let ((?x413 (* l_1_1_18 l_1_1_18)))
 (let ((?x411 (* _a_1_ l_1_1_8)))
 (let ((?x182 (* _a_1_ l_1_1_3)))
 (let ((?x447 (* _a_1_ l_1_1_1)))
 (let ((?x192 (- (- (- (* (* (* (- 2.0) _a_0_) _a_1_) l_1_1_10) ?x447) ?x182) ?x411)))
 (let ((?x117 (- (- (- (- (- (- ?x192 l_1_1_11) l_1_1_12) ?x413) ?x415) ?x417) (* l_1_1_5 (- _a_0_ (* 1.0 _a_1_))))))
 (let ((?x407 (- (+ (- ?x117 (* l_1_1_6 (- _a_0_ (* 1.0 _a_1_)))) ?x406) l_1_1_9)))
 (= (- ?x407 1.0) 0.0))))))))))))
(assert
 (let ((?x406 (* 2.0 l_1_1_7)))
 (let ((?x24 (* l_1_1_17 l_1_1_17)))
 (let ((?x230 (* l_1_1_16 l_1_1_16)))
 (let ((?x227 (* _a_2_ l_1_1_8)))
 (let ((?x225 (* _a_2_ l_1_1_3)))
 (let ((?x223 (* _a_2_ l_1_1_1)))
 (let ((?x228 (- (- (- (* (* (* (- 2.0) _a_0_) _a_2_) l_1_1_10) ?x223) ?x225) ?x227)))
 (let ((?x236 (- (- (- (- (- ?x228 l_1_1_11) l_1_1_12) ?x230) ?x24) (* l_1_1_5 (- _a_0_ (* 1.0 _a_2_))))))
 (let ((?x240 (- (+ (- ?x236 (* l_1_1_6 (- _a_0_ (* 1.0 _a_2_)))) ?x406) l_1_1_9)))
 (= (- ?x240 1.0) 0.0)))))))))))
(assert
 (let ((?x372 (- (- (* (- _a_1_) l_1_1_5) (* _a_1_ l_1_1_6)) (* (* l_1_1_10 _a_1_) _a_1_))))
 (= (- ?x372 l_1_1_7) 0.0)))
(assert
 (let ((?x406 (* 2.0 l_1_1_7)))
 (let ((?x299 (- (* (* (* (- 2.0) _a_1_) _a_2_) l_1_1_10) (* l_1_1_5 (+ _a_1_ _a_2_)))))
 (= (- (- ?x299 (* l_1_1_6 (+ _a_1_ _a_2_))) ?x406) 0.0))))
(assert
 (let ((?x1111 (- (- (* (- _a_2_) l_1_1_5) (* _a_2_ l_1_1_6)) (* (* l_1_1_10 _a_2_) _a_2_))))
 (= (- ?x1111 l_1_1_7) 0.0)))
(assert
 (= (* (* (- 2.0) l_1_1_15) l_1_1_16) 0.0))
(assert
 (= (* (* (- 2.0) l_1_1_15) l_1_1_18) 0.0))
(assert
 (let ((?x1106 (- (* (* (- 2.0) l_1_1_16) l_1_1_18) (* (* 2.0 l_1_1_17) l_1_1_19))))
 (= ?x1106 0.0)))
(assert
 (>= l_1_1_1 0.0))
(assert
 (>= l_1_1_2 0.0))
(assert
 (>= l_1_1_3 0.0))
(assert
 (>= l_1_1_4 0.0))
(assert
 (>= l_1_1_5 0.0))
(assert
 (>= l_1_1_6 0.0))
(assert
 (>= l_1_1_7 0.0))
(assert
 (>= l_1_1_8 0.0))
(assert
 (>= l_1_1_9 0.0))
(assert
 (>= l_1_1_10 0.0))
(assert
 (>= l_1_1_11 0.0))
(assert
 (>= l_1_1_12 0.0))
(assert
 (>= l_1_1_13 0.0))
(assert
 (>= l_1_1_14 0.0))
(assert
 (>= l_1_1_15 0.0))
(assert
 (>= l_1_1_17 0.0))
(assert
 (>= l_1_1_20 0.0))
(assert
 (let ((?x532 (* l_1_2_15 l_1_2_15)))
 (let ((?x175 (* _a_0_ l_1_2_7)))
 (let ((?x178 (- (- (* (- _a_0_) l_1_2_10) (* _a_0_ l_1_2_11)) (* (* 1.0 _a_0_) l_1_2_4))))
 (let ((?x548 (- (+ (- (- ?x178 (* (* 1.0 _a_0_) l_1_2_6)) ?x175) _a_0_) (* 1.0 l_1_2_1))))
 (let ((?x534 (- (- (- (- (- ?x548 l_1_2_12) l_1_2_13) l_1_2_14) ?x532) l_1_2_2)))
 (let ((?x544 (- (- (- ?x534 (* 1.0 l_1_2_3)) (* 1.0 l_1_2_5)) (* (* l_1_2_8 _a_0_) _a_0_))))
 (= (- ?x544 (* 1.0 l_1_2_9)) 0.0))))))))
(assert
 (let ((?x259 (* (/ 9.0 25.0) _a_2_)))
 (let ((?x802 (* (/ 1.0 4.0) _a_1_)))
 (let ((?x558 (- (+ (+ (+ (* _a_1_ l_1_2_4) (* _a_1_ l_1_2_6)) ?x802) ?x259) l_1_2_5)))
 (= (- ?x558 (* (* l_1_2_8 _a_1_) _a_1_)) 0.0)))))
(assert
 (let ((?x336 (* 2.0 l_1_2_5)))
 (let ((?x259 (* (/ 9.0 25.0) _a_2_)))
 (let ((?x682 (- (+ (* (* (* (- 2.0) _a_1_) _a_2_) l_1_2_8) (* (/ 2.0 5.0) _a_1_)) ?x259)))
 (let ((?x1167 (- (- (- ?x682 (* l_1_2_4 (- (- _a_1_) _a_2_))) ?x336) (* l_1_2_6 (- (- _a_1_) _a_2_)))))
 (= ?x1167 0.0))))))
(assert
 (let ((?x1196 (* (/ 9.0 100.0) _a_2_)))
 (let ((?x851 (* _a_2_ l_1_2_6)))
 (let ((?x715 (- (+ (+ (+ (* (/ 4.0 25.0) _a_1_) (* _a_2_ l_1_2_4)) ?x851) ?x1196) l_1_2_5)))
 (= (- ?x715 (* (* l_1_2_8 _a_2_) _a_2_)) 0.0)))))
(assert
 (let ((?x336 (* 2.0 l_1_2_5)))
 (let ((?x264 (* l_1_2_20 l_1_2_20)))
 (let ((?x955 (* l_1_2_19 l_1_2_19)))
 (let ((?x953 (* l_1_2_18 l_1_2_18)))
 (let ((?x937 (* _a_1_ l_1_2_7)))
 (let ((?x1176 (* _a_1_ l_1_2_11)))
 (let ((?x1003 (* _a_1_ l_1_2_10)))
 (let ((?x938 (- (- (- (* (* (* (- 2.0) _a_0_) _a_1_) l_1_2_8) ?x1003) ?x1176) ?x937)))
 (let ((?x342 (- (+ (- (- (- (+ ?x938 l_1_2_1) ?x953) ?x955) ?x264) l_1_2_3) (* l_1_2_4 (+ (- _a_0_) (* 1.0 _a_1_))))))
 (let ((?x748 (+ (- (+ ?x342 ?x336) (* l_1_2_6 (+ (- _a_0_) (* 1.0 _a_1_)))) l_1_2_9)))
 (= ?x748 0.0))))))))))))
(assert
 (let ((?x336 (* 2.0 l_1_2_5)))
 (let ((?x1122 (* l_1_2_17 l_1_2_17)))
 (let ((?x1120 (* l_1_2_16 l_1_2_16)))
 (let ((?x1027 (* _a_2_ l_1_2_7)))
 (let ((?x597 (* _a_2_ l_1_2_11)))
 (let ((?x129 (* _a_2_ l_1_2_10)))
 (let ((?x1028 (- (- (- (* (* (* (- 2.0) _a_0_) _a_2_) l_1_2_8) ?x129) ?x597) ?x1027)))
 (let ((?x798 (- (+ (- (- (+ ?x1028 l_1_2_1) ?x1120) ?x1122) l_1_2_3) (* l_1_2_4 (+ (- _a_0_) (* 1.0 _a_2_))))))
 (let ((?x757 (+ (- (+ ?x798 ?x336) (* l_1_2_6 (+ (- _a_0_) (* 1.0 _a_2_)))) l_1_2_9)))
 (= ?x757 0.0)))))))))))
(assert
 (= (* (* (- 2.0) l_1_2_15) l_1_2_16) 0.0))
(assert
 (= (* (* (- 2.0) l_1_2_15) l_1_2_18) 0.0))
(assert
 (let ((?x960 (- (* (* (- 2.0) l_1_2_16) l_1_2_18) (* (* 2.0 l_1_2_17) l_1_2_19))))
 (= ?x960 0.0)))
(assert
 (>= l_1_2_1 0.0))
(assert
 (>= l_1_2_2 0.0))
(assert
 (>= l_1_2_3 0.0))
(assert
 (>= l_1_2_4 0.0))
(assert
 (>= l_1_2_5 0.0))
(assert
 (>= l_1_2_6 0.0))
(assert
 (>= l_1_2_7 0.0))
(assert
 (>= l_1_2_8 0.0))
(assert
 (>= l_1_2_9 0.0))
(assert
 (>= l_1_2_10 0.0))
(assert
 (>= l_1_2_11 0.0))
(assert
 (>= l_1_2_12 0.0))
(assert
 (>= l_1_2_13 0.0))
(assert
 (>= l_1_2_14 0.0))
(assert
 (>= l_1_2_15 0.0))
(assert
 (>= l_1_2_17 0.0))
(assert
 (>= l_1_2_20 0.0))
(check-sat)
(get-model)